p cnf 11 43 
c Factors encoded in variables 1-5 and 6-10
c Target number: 961
c Factors: 31 x 31
-2 -12 12 12 0
2 12 12 -12 12 -12 0
7 -12 -12 0
-2 -12 0
-12 -12 0
9 0
2 -7 12 0
-8 -12 0
8 -7 0
2 7 -12 0
-7 12 -12 -12 0
-8 -12 12 12 0
-2 -7 -12 -12 0
-7 12 -12 -12 12 -12 0
-8 12 -12 -12 0
5 0
-2 7 -12 -12 12 0
2 -7 -12 -12 12 0
2 12 -12 12 0
2 -12 -12 0
-8 7 -12 0
7 12 12 0
-12 12 -12 0
-2 7 12 0
10 0
8 7 0
-12 -12 12 0
8 7 12 -12 -12 0
-8 7 12 0
-8 -12 12 0
1 0
-2 -8 12 -12 -12 0
-7 -12 -12 12 0
3 0
8 12 0
8 -7 12 -12 0
4 0
2 12 12 12 0
-2 -7 -12 0
6 0
-8 7 12 -12 0
-8 12 -12 0
-8 -7 -12 12 0
